678
1   1   84   79   0 4 24 25 13 19 0
1   2   0    0    0 0
1   3   0    0    0 0
1   4   82   80   0 17 37 10 39 33 45 44 0
2   1   23   54   0 47 12 0
2   2   43   66   0 46 38 11 32 27 0
2   3   0    0    0 0
2   4   45   77   0 18 14 6 0
3   1   26   56   0 9 34 30 0
3   2   4    18   0 49 0
3   3   105  78   0 5 41 40 42 15 0
3   4   0    0    0 0
4   1   39   51   0 35 36 20 0
4   2   39   69   0 21 50 16 2 29 0
4   3   117  77   0 1 48 23 43 7 26 0
4   4   71   72   0 3 28 31 8 22 0